NAME: SCAIL180_2314_18
COMMENT:Generated as the SCAIL100 dataset for the INCOM2024 Data Challenge
TYPE: Multi-Depot CVRP
DEPOTS: 2
DIMENSION: 182
EDGE_WEIGHT_TYPE: EUC_2D
CAPACITY: 12

NODE_COORD_SECTION 
1    974  501 
2    459  342 
3    466  775 
4    394  426 
5    132  277 
6    288  488 
7    581  945 
8    812  164 
9    18   920 
10   195  107 
11   492  449 
12   414  185 
13   330  664 
14   402  811 
15   103  8   
16   587  103 
17   303  399 
18   525  491 
19   990  966 
20   278  845 
21   178  886 
22   173  243 
23   455  496 
24   476  528 
25   197  783 
26   747  643 
27   31   113 
28   776  539 
29   512  148 
30   343  346 
31   505  591 
32   32   23  
33   134  416 
34   380  578 
35   271  6   
36   456  652 
37   514  502 
38   469  561 
39   374  589 
40   662  702 
41   913  894 
42   625  308 
43   187  491 
44   739  568 
45   507  700 
46   354  607 
47   498  523 
48   360  208 
49   265  547 
50   834  521 
51   493  475 
52   306  392 
53   780  806 
54   858  652 
55   792  606 
56   855  644 
57   696  718 
58   825  447 
59   6    136 
60   59   54  
61   771  595 
62   362  119 
63   794  597 
64   746  639 
65   11   41  
66   845  596 
67   154  53  
68   861  543 
69   149  786 
70   111  27  
71   592  837 
72   120  332 
73   523  618 
74   787  621 
75   756  826 
76   368  546 
77   503  151 
78   545  697 
79   301  584 
80   565  117 
81   725  310 
82   489  155 
83   206  602 
84   415  550 
85   790  457 
86   671  668 
87   73   2   
88   830  240 
89   737  677 
90   305  16  
91   513  530 
92   51   111 
93   649  701 
94   276  614 
95   759  591 
96   524  578 
97   572  847 
98   369  146 
99   366  507 
100  205  752 
101  791  705 
102  673  557 
103  480  90  
104  526  569 
105  402  579 
106  350  999 
107  738  623 
108  802  644 
109  582  384 
110  562  619 
111  747  866 
112  782  622 
113  864  347 
114  418  547 
115  813  646 
116  572  376 
117  434  607 
118  411  605 
119  500  680 
120  85   163 
121  586  539 
122  724  406 
123  29   85  
124  168  69  
125  802  710 
126  774  855 
127  954  932 
128  435  614 
129  667  912 
130  166  630 
131  531  542 
132  819  744 
133  829  693 
134  436  5   
135  486  555 
136  520  438 
137  458  429 
138  934  721 
139  409  836 
140  969  688 
141  462  390 
142  89   489 
143  718  569 
144  934  129 
145  858  573 
146  643  505 
147  585  433 
148  867  905 
149  478  471 
150  554  884 
151  733  306 
152  519  206 
153  821  764 
154  670  549 
155  415  225 
156  852  843 
157  194  211 
158  785  664 
159  841  577 
160  714  631 
161  444  715 
162  503  548 
163  438  556 
164  920  708 
165  534  691 
166  357  546 
167  908  270 
168  255  663 
169  43   35  
170  473  568 
171  302  469 
172  16   27  
173  408  551 
174  790  744 
175  94   556 
176  515  515 
177  505  221 
178  809  831 
179  501  80  
180  464  824 
181  200  259 
182  462  561 

DEMAND_SECTION
1    0   
2    0   
3    1   
4    1   
5    1   
6    1   
7    1   
8    1   
9    1   
10   1   
11   1   
12   1   
13   1   
14   1   
15   1   
16   1   
17   1   
18   1   
19   1   
20   1   
21   1   
22   1   
23   1   
24   1   
25   1   
26   1   
27   1   
28   1   
29   1   
30   1   
31   1   
32   1   
33   1   
34   1   
35   1   
36   1   
37   1   
38   1   
39   1   
40   1   
41   1   
42   1   
43   1   
44   1   
45   1   
46   1   
47   1   
48   1   
49   1   
50   1   
51   1   
52   1   
53   1   
54   1   
55   1   
56   1   
57   1   
58   1   
59   1   
60   1   
61   1   
62   1   
63   1   
64   1   
65   1   
66   1   
67   1   
68   1   
69   1   
70   1   
71   1   
72   1   
73   1   
74   1   
75   1   
76   1   
77   1   
78   1   
79   1   
80   1   
81   1   
82   1   
83   1   
84   1   
85   1   
86   1   
87   1   
88   1   
89   1   
90   1   
91   1   
92   1   
93   1   
94   1   
95   1   
96   1   
97   1   
98   1   
99   1   
100  1   
101  1   
102  1   
103  1   
104  1   
105  1   
106  1   
107  1   
108  1   
109  1   
110  1   
111  1   
112  1   
113  1   
114  1   
115  1   
116  1   
117  1   
118  1   
119  1   
120  1   
121  1   
122  1   
123  1   
124  1   
125  1   
126  1   
127  1   
128  1   
129  1   
130  1   
131  1   
132  1   
133  1   
134  1   
135  1   
136  1   
137  1   
138  1   
139  1   
140  1   
141  1   
142  1   
143  1   
144  1   
145  1   
146  1   
147  1   
148  1   
149  1   
150  1   
151  1   
152  1   
153  1   
154  1   
155  1   
156  1   
157  1   
158  1   
159  1   
160  1   
161  1   
162  1   
163  1   
164  1   
165  1   
166  1   
167  1   
168  1   
169  1   
170  1   
171  1   
172  1   
173  1   
174  1   
175  1   
176  1   
177  1   
178  1   
179  1   
180  1   
181  1   
182  1   

DEPOT_SECTION
1    974  501 
2    459  342 
-1
EOF
